
Gurobi 5.6.0 (linux64) logging started Mon Feb 24 18:57:21 2014


Gurobi 5.6.0 (linux64) logging started Mon Feb 24 18:59:20 2014


Gurobi 5.6.0 (linux64) logging started Mon Feb 24 19:03:15 2014


Gurobi 5.6.0 (linux64) logging started Mon Feb 24 19:04:23 2014


Gurobi 5.6.0 (linux64) logging started Mon Feb 24 19:05:44 2014


Gurobi 5.6.0 (linux64) logging started Mon Feb 24 19:06:10 2014


Gurobi 5.6.0 (linux64) logging started Mon Feb 24 19:07:08 2014

